 913
 1225
 537
 2094
 990
 6955
 6324
 6865
 16225
 9737
 17465
 19312
 29256
 14377
 26914
 72317
 78623
 74310
 77122
 63229
 77774
 100484
 135618
 119947
 128747
 108
 64
 15
 47
 98
 6575
 4098
 5468
 2648
 5290
 19732
 17349
 24499
 19008
 19611
 57640
 81462
 65134
 78139
 66579
 64451
 113999
 74323
 110295
 95616
 0
 0
 0
 0
 0
 2099
 2260
 4936
 3784
 3289
 20281
 13403
 19771
 24346
 14905
 65386
 65756
 78451
 81627
 68242
 90486
 115249
 68529
 79006
 98110
 0
 0
 0
 0
 0
 684
 172
 798
 617
 776
 10262
 18646
 10021
 25881
 8159
 47683
 43004
 55730
 59494
 42688
 126048
 114686
 112102
 98206
 157296
 0
 0
 0
 0
 0
 0
 516
 3354
 0
 0
 31478
 21169
 27077
 19648
 13774
 46770
 50364
 25460
 66707
 69019
 122266
 82456
 75118
 73041
 104531
 
 

